Instance name:    bar-n100-4.txt
Authors:          PDPTW Solver
Date:             2026-01-16
Reference:        LNS with SA/RTR
Solution: 0;12;1175.000;60.00 s
Route 1 :  38 88 50 100 49 44 94 15 99 65
Route 2 :  6 56 27 21 77 71 33 40 83 90
Route 3 :  10 8 13 60 63 58 45 95
Route 4 :  20 29 70 79 22 14 64 72
Route 5 :  26 76 2 52 42 92 41 91
Route 6 :  36 86 31 81 7 32 57 82
Route 7 :  9 3 59 53 35 43 85 93
Route 8 :  5 18 55 68 48 37 98 87
Route 9 :  46 96 28 78 4 30 54 80
Route 10 :  19 17 67 69 25 75 12 62
Route 11 :  47 11 97 61 34 24 84 74
Route 12 :  16 66 1 51 39 23 89 73
